n = 50;
C = 225;
w = [375,249,346,163,383,275,246,135,424,13,126,220,93,499,290,386,91,63,109,32,338,83,274,24,8,4,27,46,287,177,333,246,445,345,261,427,362,355,205,469,270,211,209,5,235,217,140,324,345,78];
p = [375,249,346,163,383,275,246,135,424,13,126,220,93,499,290,386,91,63,109,32,338,83,274,24,8,4,27,46,287,177,333,246,445,345,261,427,362,355,205,469,270,211,209,5,235,217,140,324,345,78];
